NAME 
ROWS
 N  OBJ
 G  R0      
 G  R1      
 G  R2      
 G  R3      
 G  R4      
 G  R5      
 G  R6      
 G  R7      
 G  R8      
 G  R9      
 G  R10     
 G  R11     
 G  R12     
 G  R13     
 G  R14     
 G  R15     
 G  R16     
 G  R17     
 G  R18     
 G  R19     
 G  R20     
 G  R21     
 G  R22     
 G  R23     
 G  R24     
 G  R25     
 G  R26     
 G  R27     
 G  R28     
 G  R29     
 G  R30     
 G  R31     
 G  R32     
 G  R33     
 G  R34     
 G  R35     
 G  R36     
 G  R37     
 G  R38     
 G  R39     
 G  R40     
 G  R41     
 G  R42     
 G  R43     
 G  R44     
 G  R45     
 G  R46     
 G  R47     
 G  R48     
 G  R49     
 G  R50     
 G  R51     
 G  R52     
 G  R53     
 G  R54     
 G  R55     
 G  R56     
 G  R57     
 G  R58     
 G  R59     
 G  R60     
 G  R61     
 G  R62     
 G  R63     
COLUMNS
    x0        OBJ       1
    x0        R0        1
    x0        R3        1
    x0        R5        1
    x0        R6        1
    x0        R9        1
    x0        R10       1
    x0        R12       1
    x0        R17       1
    x0        R18       1
    x0        R20       1
    x0        R24       1
    x0        R33       1
    x0        R34       1
    x0        R36       1
    x0        R40       1
    x0        R48       1
    x1        OBJ       1
    x1        R1        1
    x1        R2        1
    x1        R4        1
    x1        R7        1
    x1        R8        1
    x1        R11       1
    x1        R13       1
    x1        R16       1
    x1        R19       1
    x1        R21       1
    x1        R25       1
    x1        R32       1
    x1        R35       1
    x1        R37       1
    x1        R41       1
    x1        R49       1
    x2        OBJ       1
    x2        R1        1
    x2        R2        1
    x2        R4        1
    x2        R7        1
    x2        R8        1
    x2        R11       1
    x2        R14       1
    x2        R16       1
    x2        R19       1
    x2        R22       1
    x2        R26       1
    x2        R32       1
    x2        R35       1
    x2        R38       1
    x2        R42       1
    x2        R50       1
    x3        OBJ       1
    x3        R0        1
    x3        R3        1
    x3        R5        1
    x3        R6        1
    x3        R9        1
    x3        R10       1
    x3        R15       1
    x3        R17       1
    x3        R18       1
    x3        R23       1
    x3        R27       1
    x3        R33       1
    x3        R34       1
    x3        R39       1
    x3        R43       1
    x3        R51       1
    x4        OBJ       1
    x4        R1        1
    x4        R2        1
    x4        R4        1
    x4        R7        1
    x4        R8        1
    x4        R13       1
    x4        R14       1
    x4        R16       1
    x4        R21       1
    x4        R22       1
    x4        R28       1
    x4        R32       1
    x4        R37       1
    x4        R38       1
    x4        R44       1
    x4        R52       1
    x5        OBJ       1
    x5        R0        1
    x5        R3        1
    x5        R5        1
    x5        R6        1
    x5        R9        1
    x5        R12       1
    x5        R15       1
    x5        R17       1
    x5        R20       1
    x5        R23       1
    x5        R29       1
    x5        R33       1
    x5        R36       1
    x5        R39       1
    x5        R45       1
    x5        R53       1
    x6        OBJ       1
    x6        R0        1
    x6        R3        1
    x6        R5        1
    x6        R6        1
    x6        R10       1
    x6        R12       1
    x6        R15       1
    x6        R18       1
    x6        R20       1
    x6        R23       1
    x6        R30       1
    x6        R34       1
    x6        R36       1
    x6        R39       1
    x6        R46       1
    x6        R54       1
    x7        OBJ       1
    x7        R1        1
    x7        R2        1
    x7        R4        1
    x7        R7        1
    x7        R11       1
    x7        R13       1
    x7        R14       1
    x7        R19       1
    x7        R21       1
    x7        R22       1
    x7        R31       1
    x7        R35       1
    x7        R37       1
    x7        R38       1
    x7        R47       1
    x7        R55       1
    x8        OBJ       1
    x8        R1        1
    x8        R2        1
    x8        R4        1
    x8        R8        1
    x8        R11       1
    x8        R13       1
    x8        R14       1
    x8        R16       1
    x8        R25       1
    x8        R26       1
    x8        R28       1
    x8        R32       1
    x8        R41       1
    x8        R42       1
    x8        R44       1
    x8        R56       1
    x9        OBJ       1
    x9        R0        1
    x9        R3        1
    x9        R5        1
    x9        R9        1
    x9        R10       1
    x9        R12       1
    x9        R15       1
    x9        R17       1
    x9        R24       1
    x9        R27       1
    x9        R29       1
    x9        R33       1
    x9        R40       1
    x9        R43       1
    x9        R45       1
    x9        R57       1
    x10       OBJ       1
    x10       R0        1
    x10       R3        1
    x10       R6        1
    x10       R9        1
    x10       R10       1
    x10       R12       1
    x10       R15       1
    x10       R18       1
    x10       R24       1
    x10       R27       1
    x10       R30       1
    x10       R34       1
    x10       R40       1
    x10       R43       1
    x10       R46       1
    x10       R58       1
    x11       OBJ       1
    x11       R1        1
    x11       R2        1
    x11       R7        1
    x11       R8        1
    x11       R11       1
    x11       R13       1
    x11       R14       1
    x11       R19       1
    x11       R25       1
    x11       R26       1
    x11       R31       1
    x11       R35       1
    x11       R41       1
    x11       R42       1
    x11       R47       1
    x11       R59       1
    x12       OBJ       1
    x12       R0        1
    x12       R5        1
    x12       R6        1
    x12       R9        1
    x12       R10       1
    x12       R12       1
    x12       R15       1
    x12       R20       1
    x12       R24       1
    x12       R29       1
    x12       R30       1
    x12       R36       1
    x12       R40       1
    x12       R45       1
    x12       R46       1
    x12       R60       1
    x13       OBJ       1
    x13       R1        1
    x13       R4        1
    x13       R7        1
    x13       R8        1
    x13       R11       1
    x13       R13       1
    x13       R14       1
    x13       R21       1
    x13       R25       1
    x13       R28       1
    x13       R31       1
    x13       R37       1
    x13       R41       1
    x13       R44       1
    x13       R47       1
    x13       R61       1
    x14       OBJ       1
    x14       R2        1
    x14       R4        1
    x14       R7        1
    x14       R8        1
    x14       R11       1
    x14       R13       1
    x14       R14       1
    x14       R22       1
    x14       R26       1
    x14       R28       1
    x14       R31       1
    x14       R38       1
    x14       R42       1
    x14       R44       1
    x14       R47       1
    x14       R62       1
    x15       OBJ       1
    x15       R3        1
    x15       R5        1
    x15       R6        1
    x15       R9        1
    x15       R10       1
    x15       R12       1
    x15       R15       1
    x15       R23       1
    x15       R27       1
    x15       R29       1
    x15       R30       1
    x15       R39       1
    x15       R43       1
    x15       R45       1
    x15       R46       1
    x15       R63       1
    x16       OBJ       1
    x16       R1        1
    x16       R2        1
    x16       R4        1
    x16       R8        1
    x16       R16       1
    x16       R19       1
    x16       R21       1
    x16       R22       1
    x16       R25       1
    x16       R26       1
    x16       R28       1
    x16       R32       1
    x16       R49       1
    x16       R50       1
    x16       R52       1
    x16       R56       1
    x17       OBJ       1
    x17       R0        1
    x17       R3        1
    x17       R5        1
    x17       R9        1
    x17       R17       1
    x17       R18       1
    x17       R20       1
    x17       R23       1
    x17       R24       1
    x17       R27       1
    x17       R29       1
    x17       R33       1
    x17       R48       1
    x17       R51       1
    x17       R53       1
    x17       R57       1
    x18       OBJ       1
    x18       R0        1
    x18       R3        1
    x18       R6        1
    x18       R10       1
    x18       R17       1
    x18       R18       1
    x18       R20       1
    x18       R23       1
    x18       R24       1
    x18       R27       1
    x18       R30       1
    x18       R34       1
    x18       R48       1
    x18       R51       1
    x18       R54       1
    x18       R58       1
    x19       OBJ       1
    x19       R1        1
    x19       R2        1
    x19       R7        1
    x19       R11       1
    x19       R16       1
    x19       R19       1
    x19       R21       1
    x19       R22       1
    x19       R25       1
    x19       R26       1
    x19       R31       1
    x19       R35       1
    x19       R49       1
    x19       R50       1
    x19       R55       1
    x19       R59       1
    x20       OBJ       1
    x20       R0        1
    x20       R5        1
    x20       R6        1
    x20       R12       1
    x20       R17       1
    x20       R18       1
    x20       R20       1
    x20       R23       1
    x20       R24       1
    x20       R29       1
    x20       R30       1
    x20       R36       1
    x20       R48       1
    x20       R53       1
    x20       R54       1
    x20       R60       1
    x21       OBJ       1
    x21       R1        1
    x21       R4        1
    x21       R7        1
    x21       R13       1
    x21       R16       1
    x21       R19       1
    x21       R21       1
    x21       R22       1
    x21       R25       1
    x21       R28       1
    x21       R31       1
    x21       R37       1
    x21       R49       1
    x21       R52       1
    x21       R55       1
    x21       R61       1
    x22       OBJ       1
    x22       R2        1
    x22       R4        1
    x22       R7        1
    x22       R14       1
    x22       R16       1
    x22       R19       1
    x22       R21       1
    x22       R22       1
    x22       R26       1
    x22       R28       1
    x22       R31       1
    x22       R38       1
    x22       R50       1
    x22       R52       1
    x22       R55       1
    x22       R62       1
    x23       OBJ       1
    x23       R3        1
    x23       R5        1
    x23       R6        1
    x23       R15       1
    x23       R17       1
    x23       R18       1
    x23       R20       1
    x23       R23       1
    x23       R27       1
    x23       R29       1
    x23       R30       1
    x23       R39       1
    x23       R51       1
    x23       R53       1
    x23       R54       1
    x23       R63       1
    x24       OBJ       1
    x24       R0        1
    x24       R9        1
    x24       R10       1
    x24       R12       1
    x24       R17       1
    x24       R18       1
    x24       R20       1
    x24       R24       1
    x24       R27       1
    x24       R29       1
    x24       R30       1
    x24       R40       1
    x24       R48       1
    x24       R57       1
    x24       R58       1
    x24       R60       1
    x25       OBJ       1
    x25       R1        1
    x25       R8        1
    x25       R11       1
    x25       R13       1
    x25       R16       1
    x25       R19       1
    x25       R21       1
    x25       R25       1
    x25       R26       1
    x25       R28       1
    x25       R31       1
    x25       R41       1
    x25       R49       1
    x25       R56       1
    x25       R59       1
    x25       R61       1
    x26       OBJ       1
    x26       R2        1
    x26       R8        1
    x26       R11       1
    x26       R14       1
    x26       R16       1
    x26       R19       1
    x26       R22       1
    x26       R25       1
    x26       R26       1
    x26       R28       1
    x26       R31       1
    x26       R42       1
    x26       R50       1
    x26       R56       1
    x26       R59       1
    x26       R62       1
    x27       OBJ       1
    x27       R3        1
    x27       R9        1
    x27       R10       1
    x27       R15       1
    x27       R17       1
    x27       R18       1
    x27       R23       1
    x27       R24       1
    x27       R27       1
    x27       R29       1
    x27       R30       1
    x27       R43       1
    x27       R51       1
    x27       R57       1
    x27       R58       1
    x27       R63       1
    x28       OBJ       1
    x28       R4        1
    x28       R8        1
    x28       R13       1
    x28       R14       1
    x28       R16       1
    x28       R21       1
    x28       R22       1
    x28       R25       1
    x28       R26       1
    x28       R28       1
    x28       R31       1
    x28       R44       1
    x28       R52       1
    x28       R56       1
    x28       R61       1
    x28       R62       1
    x29       OBJ       1
    x29       R5        1
    x29       R9        1
    x29       R12       1
    x29       R15       1
    x29       R17       1
    x29       R20       1
    x29       R23       1
    x29       R24       1
    x29       R27       1
    x29       R29       1
    x29       R30       1
    x29       R45       1
    x29       R53       1
    x29       R57       1
    x29       R60       1
    x29       R63       1
    x30       OBJ       1
    x30       R6        1
    x30       R10       1
    x30       R12       1
    x30       R15       1
    x30       R18       1
    x30       R20       1
    x30       R23       1
    x30       R24       1
    x30       R27       1
    x30       R29       1
    x30       R30       1
    x30       R46       1
    x30       R54       1
    x30       R58       1
    x30       R60       1
    x30       R63       1
    x31       OBJ       1
    x31       R7        1
    x31       R11       1
    x31       R13       1
    x31       R14       1
    x31       R19       1
    x31       R21       1
    x31       R22       1
    x31       R25       1
    x31       R26       1
    x31       R28       1
    x31       R31       1
    x31       R47       1
    x31       R55       1
    x31       R59       1
    x31       R61       1
    x31       R62       1
    x32       OBJ       1
    x32       R1        1
    x32       R2        1
    x32       R4        1
    x32       R8        1
    x32       R16       1
    x32       R32       1
    x32       R35       1
    x32       R37       1
    x32       R38       1
    x32       R41       1
    x32       R42       1
    x32       R44       1
    x32       R49       1
    x32       R50       1
    x32       R52       1
    x32       R56       1
    x33       OBJ       1
    x33       R0        1
    x33       R3        1
    x33       R5        1
    x33       R9        1
    x33       R17       1
    x33       R33       1
    x33       R34       1
    x33       R36       1
    x33       R39       1
    x33       R40       1
    x33       R43       1
    x33       R45       1
    x33       R48       1
    x33       R51       1
    x33       R53       1
    x33       R57       1
    x34       OBJ       1
    x34       R0        1
    x34       R3        1
    x34       R6        1
    x34       R10       1
    x34       R18       1
    x34       R33       1
    x34       R34       1
    x34       R36       1
    x34       R39       1
    x34       R40       1
    x34       R43       1
    x34       R46       1
    x34       R48       1
    x34       R51       1
    x34       R54       1
    x34       R58       1
    x35       OBJ       1
    x35       R1        1
    x35       R2        1
    x35       R7        1
    x35       R11       1
    x35       R19       1
    x35       R32       1
    x35       R35       1
    x35       R37       1
    x35       R38       1
    x35       R41       1
    x35       R42       1
    x35       R47       1
    x35       R49       1
    x35       R50       1
    x35       R55       1
    x35       R59       1
    x36       OBJ       1
    x36       R0        1
    x36       R5        1
    x36       R6        1
    x36       R12       1
    x36       R20       1
    x36       R33       1
    x36       R34       1
    x36       R36       1
    x36       R39       1
    x36       R40       1
    x36       R45       1
    x36       R46       1
    x36       R48       1
    x36       R53       1
    x36       R54       1
    x36       R60       1
    x37       OBJ       1
    x37       R1        1
    x37       R4        1
    x37       R7        1
    x37       R13       1
    x37       R21       1
    x37       R32       1
    x37       R35       1
    x37       R37       1
    x37       R38       1
    x37       R41       1
    x37       R44       1
    x37       R47       1
    x37       R49       1
    x37       R52       1
    x37       R55       1
    x37       R61       1
    x38       OBJ       1
    x38       R2        1
    x38       R4        1
    x38       R7        1
    x38       R14       1
    x38       R22       1
    x38       R32       1
    x38       R35       1
    x38       R37       1
    x38       R38       1
    x38       R42       1
    x38       R44       1
    x38       R47       1
    x38       R50       1
    x38       R52       1
    x38       R55       1
    x38       R62       1
    x39       OBJ       1
    x39       R3        1
    x39       R5        1
    x39       R6        1
    x39       R15       1
    x39       R23       1
    x39       R33       1
    x39       R34       1
    x39       R36       1
    x39       R39       1
    x39       R43       1
    x39       R45       1
    x39       R46       1
    x39       R51       1
    x39       R53       1
    x39       R54       1
    x39       R63       1
    x40       OBJ       1
    x40       R0        1
    x40       R9        1
    x40       R10       1
    x40       R12       1
    x40       R24       1
    x40       R33       1
    x40       R34       1
    x40       R36       1
    x40       R40       1
    x40       R43       1
    x40       R45       1
    x40       R46       1
    x40       R48       1
    x40       R57       1
    x40       R58       1
    x40       R60       1
    x41       OBJ       1
    x41       R1        1
    x41       R8        1
    x41       R11       1
    x41       R13       1
    x41       R25       1
    x41       R32       1
    x41       R35       1
    x41       R37       1
    x41       R41       1
    x41       R42       1
    x41       R44       1
    x41       R47       1
    x41       R49       1
    x41       R56       1
    x41       R59       1
    x41       R61       1
    x42       OBJ       1
    x42       R2        1
    x42       R8        1
    x42       R11       1
    x42       R14       1
    x42       R26       1
    x42       R32       1
    x42       R35       1
    x42       R38       1
    x42       R41       1
    x42       R42       1
    x42       R44       1
    x42       R47       1
    x42       R50       1
    x42       R56       1
    x42       R59       1
    x42       R62       1
    x43       OBJ       1
    x43       R3        1
    x43       R9        1
    x43       R10       1
    x43       R15       1
    x43       R27       1
    x43       R33       1
    x43       R34       1
    x43       R39       1
    x43       R40       1
    x43       R43       1
    x43       R45       1
    x43       R46       1
    x43       R51       1
    x43       R57       1
    x43       R58       1
    x43       R63       1
    x44       OBJ       1
    x44       R4        1
    x44       R8        1
    x44       R13       1
    x44       R14       1
    x44       R28       1
    x44       R32       1
    x44       R37       1
    x44       R38       1
    x44       R41       1
    x44       R42       1
    x44       R44       1
    x44       R47       1
    x44       R52       1
    x44       R56       1
    x44       R61       1
    x44       R62       1
    x45       OBJ       1
    x45       R5        1
    x45       R9        1
    x45       R12       1
    x45       R15       1
    x45       R29       1
    x45       R33       1
    x45       R36       1
    x45       R39       1
    x45       R40       1
    x45       R43       1
    x45       R45       1
    x45       R46       1
    x45       R53       1
    x45       R57       1
    x45       R60       1
    x45       R63       1
    x46       OBJ       1
    x46       R6        1
    x46       R10       1
    x46       R12       1
    x46       R15       1
    x46       R30       1
    x46       R34       1
    x46       R36       1
    x46       R39       1
    x46       R40       1
    x46       R43       1
    x46       R45       1
    x46       R46       1
    x46       R54       1
    x46       R58       1
    x46       R60       1
    x46       R63       1
    x47       OBJ       1
    x47       R7        1
    x47       R11       1
    x47       R13       1
    x47       R14       1
    x47       R31       1
    x47       R35       1
    x47       R37       1
    x47       R38       1
    x47       R41       1
    x47       R42       1
    x47       R44       1
    x47       R47       1
    x47       R55       1
    x47       R59       1
    x47       R61       1
    x47       R62       1
    x48       OBJ       1
    x48       R0        1
    x48       R17       1
    x48       R18       1
    x48       R20       1
    x48       R24       1
    x48       R33       1
    x48       R34       1
    x48       R36       1
    x48       R40       1
    x48       R48       1
    x48       R51       1
    x48       R53       1
    x48       R54       1
    x48       R57       1
    x48       R58       1
    x48       R60       1
    x49       OBJ       1
    x49       R1        1
    x49       R16       1
    x49       R19       1
    x49       R21       1
    x49       R25       1
    x49       R32       1
    x49       R35       1
    x49       R37       1
    x49       R41       1
    x49       R49       1
    x49       R50       1
    x49       R52       1
    x49       R55       1
    x49       R56       1
    x49       R59       1
    x49       R61       1
    x50       OBJ       1
    x50       R2        1
    x50       R16       1
    x50       R19       1
    x50       R22       1
    x50       R26       1
    x50       R32       1
    x50       R35       1
    x50       R38       1
    x50       R42       1
    x50       R49       1
    x50       R50       1
    x50       R52       1
    x50       R55       1
    x50       R56       1
    x50       R59       1
    x50       R62       1
    x51       OBJ       1
    x51       R3        1
    x51       R17       1
    x51       R18       1
    x51       R23       1
    x51       R27       1
    x51       R33       1
    x51       R34       1
    x51       R39       1
    x51       R43       1
    x51       R48       1
    x51       R51       1
    x51       R53       1
    x51       R54       1
    x51       R57       1
    x51       R58       1
    x51       R63       1
    x52       OBJ       1
    x52       R4        1
    x52       R16       1
    x52       R21       1
    x52       R22       1
    x52       R28       1
    x52       R32       1
    x52       R37       1
    x52       R38       1
    x52       R44       1
    x52       R49       1
    x52       R50       1
    x52       R52       1
    x52       R55       1
    x52       R56       1
    x52       R61       1
    x52       R62       1
    x53       OBJ       1
    x53       R5        1
    x53       R17       1
    x53       R20       1
    x53       R23       1
    x53       R29       1
    x53       R33       1
    x53       R36       1
    x53       R39       1
    x53       R45       1
    x53       R48       1
    x53       R51       1
    x53       R53       1
    x53       R54       1
    x53       R57       1
    x53       R60       1
    x53       R63       1
    x54       OBJ       1
    x54       R6        1
    x54       R18       1
    x54       R20       1
    x54       R23       1
    x54       R30       1
    x54       R34       1
    x54       R36       1
    x54       R39       1
    x54       R46       1
    x54       R48       1
    x54       R51       1
    x54       R53       1
    x54       R54       1
    x54       R58       1
    x54       R60       1
    x54       R63       1
    x55       OBJ       1
    x55       R7        1
    x55       R19       1
    x55       R21       1
    x55       R22       1
    x55       R31       1
    x55       R35       1
    x55       R37       1
    x55       R38       1
    x55       R47       1
    x55       R49       1
    x55       R50       1
    x55       R52       1
    x55       R55       1
    x55       R59       1
    x55       R61       1
    x55       R62       1
    x56       OBJ       1
    x56       R8        1
    x56       R16       1
    x56       R25       1
    x56       R26       1
    x56       R28       1
    x56       R32       1
    x56       R41       1
    x56       R42       1
    x56       R44       1
    x56       R49       1
    x56       R50       1
    x56       R52       1
    x56       R56       1
    x56       R59       1
    x56       R61       1
    x56       R62       1
    x57       OBJ       1
    x57       R9        1
    x57       R17       1
    x57       R24       1
    x57       R27       1
    x57       R29       1
    x57       R33       1
    x57       R40       1
    x57       R43       1
    x57       R45       1
    x57       R48       1
    x57       R51       1
    x57       R53       1
    x57       R57       1
    x57       R58       1
    x57       R60       1
    x57       R63       1
    x58       OBJ       1
    x58       R10       1
    x58       R18       1
    x58       R24       1
    x58       R27       1
    x58       R30       1
    x58       R34       1
    x58       R40       1
    x58       R43       1
    x58       R46       1
    x58       R48       1
    x58       R51       1
    x58       R54       1
    x58       R57       1
    x58       R58       1
    x58       R60       1
    x58       R63       1
    x59       OBJ       1
    x59       R11       1
    x59       R19       1
    x59       R25       1
    x59       R26       1
    x59       R31       1
    x59       R35       1
    x59       R41       1
    x59       R42       1
    x59       R47       1
    x59       R49       1
    x59       R50       1
    x59       R55       1
    x59       R56       1
    x59       R59       1
    x59       R61       1
    x59       R62       1
    x60       OBJ       1
    x60       R12       1
    x60       R20       1
    x60       R24       1
    x60       R29       1
    x60       R30       1
    x60       R36       1
    x60       R40       1
    x60       R45       1
    x60       R46       1
    x60       R48       1
    x60       R53       1
    x60       R54       1
    x60       R57       1
    x60       R58       1
    x60       R60       1
    x60       R63       1
    x61       OBJ       1
    x61       R13       1
    x61       R21       1
    x61       R25       1
    x61       R28       1
    x61       R31       1
    x61       R37       1
    x61       R41       1
    x61       R44       1
    x61       R47       1
    x61       R49       1
    x61       R52       1
    x61       R55       1
    x61       R56       1
    x61       R59       1
    x61       R61       1
    x61       R62       1
    x62       OBJ       1
    x62       R14       1
    x62       R22       1
    x62       R26       1
    x62       R28       1
    x62       R31       1
    x62       R38       1
    x62       R42       1
    x62       R44       1
    x62       R47       1
    x62       R50       1
    x62       R52       1
    x62       R55       1
    x62       R56       1
    x62       R59       1
    x62       R61       1
    x62       R62       1
    x63       OBJ       1
    x63       R15       1
    x63       R23       1
    x63       R27       1
    x63       R29       1
    x63       R30       1
    x63       R39       1
    x63       R43       1
    x63       R45       1
    x63       R46       1
    x63       R51       1
    x63       R53       1
    x63       R54       1
    x63       R57       1
    x63       R58       1
    x63       R60       1
    x63       R63       1
RHS
    RHS1      R0        1
    RHS1      R1        1
    RHS1      R2        1
    RHS1      R3        1
    RHS1      R4        1
    RHS1      R5        1
    RHS1      R6        1
    RHS1      R7        1
    RHS1      R8        1
    RHS1      R9        1
    RHS1      R10       1
    RHS1      R11       1
    RHS1      R12       1
    RHS1      R13       1
    RHS1      R14       1
    RHS1      R15       1
    RHS1      R16       1
    RHS1      R17       1
    RHS1      R18       1
    RHS1      R19       1
    RHS1      R20       1
    RHS1      R21       1
    RHS1      R22       1
    RHS1      R23       1
    RHS1      R24       1
    RHS1      R25       1
    RHS1      R26       1
    RHS1      R27       1
    RHS1      R28       1
    RHS1      R29       1
    RHS1      R30       1
    RHS1      R31       1
    RHS1      R32       1
    RHS1      R33       1
    RHS1      R34       1
    RHS1      R35       1
    RHS1      R36       1
    RHS1      R37       1
    RHS1      R38       1
    RHS1      R39       1
    RHS1      R40       1
    RHS1      R41       1
    RHS1      R42       1
    RHS1      R43       1
    RHS1      R44       1
    RHS1      R45       1
    RHS1      R46       1
    RHS1      R47       1
    RHS1      R48       1
    RHS1      R49       1
    RHS1      R50       1
    RHS1      R51       1
    RHS1      R52       1
    RHS1      R53       1
    RHS1      R54       1
    RHS1      R55       1
    RHS1      R56       1
    RHS1      R57       1
    RHS1      R58       1
    RHS1      R59       1
    RHS1      R60       1
    RHS1      R61       1
    RHS1      R62       1
    RHS1      R63       1
BOUNDS
 UP BND1      x0        1
 UP BND1      x1        1
 UP BND1      x2        1
 UP BND1      x3        1
 UP BND1      x4        1
 UP BND1      x5        1
 UP BND1      x6        1
 UP BND1      x7        1
 UP BND1      x8        1
 UP BND1      x9        1
 UP BND1      x10       1
 UP BND1      x11       1
 UP BND1      x12       1
 UP BND1      x13       1
 UP BND1      x14       1
 UP BND1      x15       1
 UP BND1      x16       1
 UP BND1      x17       1
 UP BND1      x18       1
 UP BND1      x19       1
 UP BND1      x20       1
 UP BND1      x21       1
 UP BND1      x22       1
 UP BND1      x23       1
 UP BND1      x24       1
 UP BND1      x25       1
 UP BND1      x26       1
 UP BND1      x27       1
 UP BND1      x28       1
 UP BND1      x29       1
 UP BND1      x30       1
 UP BND1      x31       1
 UP BND1      x32       1
 UP BND1      x33       1
 UP BND1      x34       1
 UP BND1      x35       1
 UP BND1      x36       1
 UP BND1      x37       1
 UP BND1      x38       1
 UP BND1      x39       1
 UP BND1      x40       1
 UP BND1      x41       1
 UP BND1      x42       1
 UP BND1      x43       1
 UP BND1      x44       1
 UP BND1      x45       1
 UP BND1      x46       1
 UP BND1      x47       1
 UP BND1      x48       1
 UP BND1      x49       1
 UP BND1      x50       1
 UP BND1      x51       1
 UP BND1      x52       1
 UP BND1      x53       1
 UP BND1      x54       1
 UP BND1      x55       1
 UP BND1      x56       1
 UP BND1      x57       1
 UP BND1      x58       1
 UP BND1      x59       1
 UP BND1      x60       1
 UP BND1      x61       1
 UP BND1      x62       1
 UP BND1      x63       1
ENDATA
